 10	60
 18
  0	 43	 31	 60	103	 44	120	 52	 91	 41	104	 33	 18	101	112	 93	 78	121	
 12
  0	 48	 14	  8	 74	108	 55	 68	115	 17	 77	121	
 18
  0	 49	 27	109	  1	 22	 61	 87	 82	 32	 92	 23	 51	  4	111	 83	 64	121	
 14
  0	 38	 39	 45	 98	 16	 54	 99	 76	114	105	 20	 80	121	
 14
  0	  5	 12	 37	 72	 42	 65	 97	 59	102	 26	119	 86	121	
 14
  0	 36	 96	 35	  3	 63	  7	 95	 28	 88	 67	 25	 85	121	
 12
  0	  2	 62	 11	 19	 58	 79	 71	  9	118	 69	121	
 14
  0	 57	 29	 10	 89	 34	 70	 30	 94	 53	 90	113	117	121	
 12
  0	 21	 24	 40	 47	 81	100	 84	  6	107	 66	121	
 12
  0	 13	 46	106	 15	 50	110	 73	 75	 56	116	121	
